(declare-const A Int)
(declare-const u Int)
(declare-const v Int)
(declare-const uninterp Int)
(declare-const |r'| Int)
(declare-const |u'| Int)
(declare-const term_to_project_onto_integralized Int)
(declare-const term_to_project_onto0_integralized Int)
(declare-const uninterp0 Int)
(declare-const r Int)
(assert (and (<= (+ (- u) 1) 0) (<= (+ (- v) 1) 0) (<= (+ (- A) 1) 0)
               (= (+ (* 4 r) (* 4 A) uninterp (* -2 v) (- uninterp0) (* 2 u)) 0)
               (<= (+ r 1) 0) (= (+ |r'| (- r) (- u)) 0)
               (= (+ |u'| (- u) -2) 0) (<= (+ 1 (- uninterp0)) 0)
               (<= (+ u (- uninterp0)) 0) (<= (+ u (- uninterp0)) 0)
               (<= (+ 1 (- uninterp)) 0) (<= (+ v (- uninterp)) 0)
               (<= (+ v (- uninterp)) 0)
               (= (+ term_to_project_onto0_integralized (- (+ |u'| (- u)))) 0)
               (= (+ term_to_project_onto_integralized (- (+ |r'| (- r)))) 0)))
(check-sat)